%chk=Si2.chk
#p b3pw91/lanl2dz 

Title Card Required

0 1
 Si            0    3.00000000    0.00000000    0.00000000
 Si           -1    0.00000000    0.00000000    0.00000000

